c 63_3_checker.cnf
c
c field = 63
c formula set type = 3_checker
c
p cnf 4 46
120 
122 
126 
-128 
121 
123 
127 
-129 
122 
126 
128 
-120 
123 
127 
129 
-121 
122 
126 
128 
-130 
123 
127 
129 
-131 
126 
128 
130 
-122 
127 
129 
131 
-123 
126 
128 
130 
-132 
127 
129 
131 
-133 
34 
64 
94 
-4 
35 
65 
95 
-5 
34 
64 
94 
-154 
35 
65 
95 
-155 
64 
94 
154 
-34 
65 
95 
155 
-35 
64 
94 
154 
-184 
65 
95 
155 
-185 
94 
154 
184 
-64 
95 
155 
185 
-65 
94 
154 
184 
-214 
95 
155 
185 
-215 
154 
184 
214 
-94 
155 
185 
215 
-95 
154 
184 
214 
-244 
155 
185 
215 
-245 
60 
92 
156 
-188 
61 
93 
157 
-189 
92 
156 
188 
-60 
93 
157 
189 
-61 
92 
156 
188 
-220 
93 
157 
189 
-221 
156 
188 
220 
-92 
157 
189 
221 
-93 
156 
188 
220 
-252 
157 
189 
221 
-253 
40 
68 
96 
-12 
41 
69 
97 
-13 
40 
68 
96 
-152 
41 
69 
97 
-153 
68 
96 
152 
-40 
69 
97 
153 
-41 
68 
96 
152 
-180 
69 
97 
153 
-181 
96 
152 
180 
-68 
97 
153 
181 
-69 
